n_res = 7;
rcap = [21, 18, 18, 16, 16, 103, 108];
rtype = [1, 1, 1, 1, 1, 2, 2];
n_tasks = 16;
modes = [ {1, 2, 3}, {4, 5, 6}, {7, 8, 9}, {10, 11, 12}, {13, 14, 15}, {16, 17, 18}, {19, 20, 21}, {22, 23, 24}, {25, 26, 27}, {28, 29, 30}, {31, 32, 33}, {34, 35, 36}, {37, 38, 39}, {40, 41, 42}, {43, 44, 45}, {46, 47, 48} ];
succ = [ {4, 7, 9}, {7, 10, 15}, {7, 9, 10}, {5, 6, 15}, {16}, {8, 11, 14}, {12, 14}, {10, 12}, {14, 15, 16}, {13}, {12}, {13}, {16}, {}, {}, {} ];
n_opt = 48;
dur = [4, 6, 9, 8, 8, 10, 2, 6, 7, 2, 4, 4, 2, 6, 6, 2, 5, 6, 4, 7, 10, 5, 8, 8, 1, 7, 7, 1, 1, 8, 3, 4, 5, 4, 5, 7, 4, 6, 7, 1, 8, 8, 6, 6, 8, 8, 9, 10];
rreq = [|  8,  6,  6,  4,  3,  3,  6,  4,  2, 10, 10,  9,  6,  5,  3,  7,  7,  5,  9,  9,  8,  8,  5,  4,  9,  6,  7,  8,  8,  6,  6,  3,  2,  8,  7,  4,  5,  5,  4,  3,  3,  3,  6,  9,  5,  6,  6,  6
        |  9,  9,  8,  9,  7,  6,  9,  8,  4,  3,  2,  2,  8,  4,  6,  8,  8,  7,  6,  5,  4,  5,  3,  1,  7,  6,  3,  8,  8,  7,  8,  5,  5,  7,  6,  4,  5,  5,  4,  7,  5,  4,  6,  7,  4, 10,  9,  6
        |  4,  4,  4, 10, 10, 10,  4,  3,  3,  7,  6,  5,  4,  3,  3,  4,  4,  2,  7,  4,  1,  9,  8,  8,  7,  3,  3,  7,  7,  6,  6,  4,  4,  5,  5,  5,  7,  5,  5,  5,  5,  4,  3,  4,  3,  3,  3,  3
        |  8,  6,  2,  6,  8,  5,  3,  2,  2,  4,  4,  4,  5,  5,  5,  2,  2,  1,  8,  6,  4,  3,  3,  3,  8,  6,  7,  8,  6,  5,  7,  7,  6,  3,  3,  2,  5,  2,  1,  3,  2,  2,  6,  7,  3,  8,  7,  4
        |  9,  8,  8,  8,  8,  7,  6,  5,  4,  7,  5,  7,  6,  1,  1,  6,  5,  2,  4,  4,  3,  2,  2,  2,  8,  6,  6,  6,  8,  6,  6,  3,  3,  7,  7,  5,  4,  4,  3,  1,  1,  1,  6,  5,  3,  6,  5,  4
        |  7,  6,  6,  6,  7,  2,  8,  8,  7,  5,  4,  4,  8,  7,  7,  6,  6,  5,  9,  9,  8,  3,  1,  2,  3,  2,  2,  7,  7,  7,  6,  5,  3,  8,  7,  7,  8,  7,  5,  8,  8,  7, 10, 10, 10,  5,  5,  5
        |  9,  8,  7,  9,  8,  7,  4,  4,  3,  9,  8,  5,  6,  4,  4,  7,  6,  6,  8,  7,  7,  9,  4,  6,  7,  6,  5,  6,  6,  6, 10, 10,  9,  3,  2,  2,  3,  3,  3,  6,  5,  6, 10, 10,  9,  9,  7,  6 |];
